c turning on binary mode checking
c parsing input formula with 202048 variables and 780985 clauses
c finished parsing, read 2209738 bytes from proof file
c detected empty clause; start verification via backward checking
c 806 of 780985 clauses in core                            
c 209 of 88163 lemmas in core using 3248 resolution steps
c 0 RAT lemmas in core; 8 redundant literals in core lemmas
s VERIFIED
c verification time: 0.843 seconds
